************************************************************************
file with basedata            : n/a
initial value random generator: n/a
************************************************************************
projects                      :  1
jobs (incl. supersource/sink ):  122
horizon                       :  627
RESOURCES
  - renewable                 :  4   R
  - nonrenewable              :  0   N
  - doubly constrained        :  0   D
************************************************************************
PROJECT INFORMATION:
pronr.  #jobs rel.date duedate tardcost  MPM-Time
    1    120      0       72        8       72
************************************************************************
PRECEDENCE RELATIONS:
jobnr.    #modes  #successors   successors
   1        1          3           2   3   4
   2        1          3          20  74 112
   3        1          1          81
   4        1          3           5   6   7
   5        1          3           8  10  12
   6        1          3           9  28  87
   7        1          3          24  32  61
   8        1          3          19  25  29
   9        1          1          38
  10        1          3          11  13  27
  11        1          3          17  26  30
  12        1          1          16
  13        1          3          14  15  18
  14        1          2          22  63
  15        1          3          44  47  60
  16        1          3          23  65 115
  17        1          3          41  49  56
  18        1          1         120
  19        1          3          21  75  85
  20        1          1          33
  21        1          1          34
  22        1          2          39  45
  23        1          1          31
  24        1          3          53  73  92
  25        1          2          55 119
  26        1          1         114
  27        1          2          48  72
  28        1          2          50 105
  29        1          2          62  93
  30        1          2          40  84
  31        1          2          87 101
  32        1          2          35  37
  33        1          1          92
  34        1          1          36
  35        1          3          42  52  64
  36        1          2          80 115
  37        1          2          43  77
  38        1          2          70 114
  39        1          2          51  57
  40        1          1         116
  41        1          2          98 109
  42        1          1          65
  43        1          1          54
  44        1          2          46  49
  45        1          1          96
  46        1          1          91
  47        1          1          59
  48        1          2          68  99
  49        1          1          90
  50        1          1          58
  51        1          1          80
  52        1          1          71
  53        1          3          76  78  89
  54        1          2          83  95
  55        1          1         102
  56        1          1          94
  57        1          3          66  71  86
  58        1          1          80
  59        1          2          81  98
  60        1          1          77
  61        1          1          99
  62        1          1         103
  63        1          1          83
  64        1          3          67  69  79
  65        1          1          88
  66        1          1          68
  67        1          1         113
  68        1          1          82
  69        1          1          87
  70        1          1         104
  71        1          1          97
  72        1          1         116
  73        1          1          90
  74        1          1          77
  75        1          1          82
  76        1          2          97 106
  77        1          1          84
  78        1          1         109
  79        1          1         107
  80        1          1          88
  81        1          1         105
  82        1          1          89
  83        1          1          93
  84        1          1         108
  85        1          1         102
  86        1          2         103 104
  87        1          1          99
  88        1          1         116
  89        1          1          91
  90        1          1         102
  91        1          1         111
  92        1          1         105
  93        1          1         118
  94        1          1         101
  95        1          1         101
  96        1          2         100 108
  97        1          1         120
  98        1          1         100
  99        1          1         103
 100        1          1         104
 101        1          1         111
 102        1          1         117
 103        1          1         118
 104        1          2         110 113
 105        1          1         106
 106        1          1         110
 107        1          2         108 112
 108        1          2         111 117
 109        1          1         121
 110        1          1         117
 111        1          1         119
 112        1          1         113
 113        1          1         118
 114        1          1         115
 115        1          1         120
 116        1          1         119
 117        1          1         121
 118        1          1         121
 119        1          1         122
 120        1          1         122
 121        1          1         122
 122        1          0        
************************************************************************
REQUESTS/DURATIONS:
jobnr. mode duration  R 1  R 2  R 3  R 4
------------------------------------------------------------------------
  1      1     0    
  2      1     5       7   7   7   7   7
                       0   0   0   0   0
                       4   4   4   4   4
                       4   4   4   4   4
  3      1     3       0   0   0
                       3   3   3
                       9   9   9
                       9   9   9
  4      1     7       5   5   5   5   5   5   5
                       2   2   2   2   2   2   2
                       3   3   3   3   3   3   3
                      10  10  10  10  10  10  10
  5      1     2       5   5
                       6   6
                       0   0
                       3   3
  6      1     1       0
                       8
                       8
                       1
  7      1     8       0   0   0   0   0   0   0   0
                       4   4   4   2   4   4   4   4
                       2   2   2   1   2   2   2   2
                       0   0   0   0   0   0   0   0
  8      1     8       8   8   8   8   8   8   8   8
                       1   1   1   1   1   1   1   1
                       8   8   8   8   8   8   8   8
                       9   9   9   9   9   9   9   9
  9      1     9       0   0   0   0   0   0   0   0   0
                       6   6   6   6   6   3   6   3   6
                       2   2   2   2   2   1   2   1   2
                       5   5   5   5   5   3   5   3   5
 10      1     1       8
                       3
                       1
                       0
 11      1     4       0   0   0   0
                       3   3   6   6
                       1   1   1   1
                       3   3   5   5
 12      1     9       0   0   0   0   0   0   0   0   0
                       7   7   7   7   7   7   7   7   7
                       9   9   9   9   9   9   9   9   9
                       3   3   3   3   3   3   3   3   3
 13      1     2       3   3
                       5   5
                       3   3
                       8   8
 14      1     1       4
                       0
                       1
                       1
 15      1     7      10   5  10  10  10  10  10
                       1   1   1   1   1   1   1
                       4   2   4   4   4   4   4
                       5   3   5   5   5   5   5
 16      1     7       6   6   6   6   3   6   6
                       2   2   2   2   1   2   2
                      10  10  10  10   5  10  10
                       0   0   0   0   0   0   0
 17      1     2      10   5
                       2   1
                       7   4
                       8   4
 18      1     7       0   0   0   0   0   0   0
                       3   3   3   3   3   3   3
                       6   6   6   6   6   6   6
                       4   4   4   4   4   4   4
 19      1     3       4   7   4
                       5  10   5
                       3   6   3
                       3   5   3
 20      1     8       1   1   1   1   1   1   1   1
                       6   3   6   6   6   6   3   6
                       9   5   9   9   9   9   5   9
                       6   3   6   6   6   6   3   6
 21      1     9       0   0   0   0   0   0   0   0   0
                       3   3   3   3   3   3   3   3   3
                       6   6   6   6   6   6   6   6   6
                       0   0   0   0   0   0   0   0   0
 22      1     3       8   8   8
                       5   5   5
                       7   7   7
                       3   3   3
 23      1     2       0   0
                       3   3
                       0   0
                       3   3
 24      1     8       0   0   0   0   0   0   0   0
                       3   6   6   6   6   6   6   6
                       4   7   7   7   7   7   7   7
                       4   8   8   8   8   8   8   8
 25      1    10       1   1   1   1   1   1   1   1   1   1
                       1   1   1   1   1   1   1   1   1   1
                       0   0   0   0   0   0   0   0   0   0
                       2   2   2   2   2   2   2   2   2   2
 26      1     4       2   2   2   2
                       6   6   6   6
                       9   9   9   9
                       2   2   2   2
 27      1     4       5   5   3   3
                       9   9   5   5
                       0   0   0   0
                       3   3   2   2
 28      1     7      10  10  10  10  10  10  10
                       9   9   9   9   9   9   9
                       5   5   5   5   5   5   5
                       0   0   0   0   0   0   0
 29      1     8       8   4   8   8   8   8   8   8
                       4   2   4   4   4   4   4   4
                       0   0   0   0   0   0   0   0
                       0   0   0   0   0   0   0   0
 30      1     8       0   0   0   0   0   0   0   0
                       1   1   1   1   1   1   1   1
                       0   0   0   0   0   0   0   0
                       8   8   8   8   8   8   4   8
 31      1     7       8   8   8   8   8   8   4
                       9   9   9   9   9   9   5
                       6   6   6   6   6   6   3
                       6   6   6   6   6   6   3
 32      1     7       6   6   6   6   6   6   6
                       6   6   6   6   6   6   6
                       5   5   5   5   5   5   5
                       0   0   0   0   0   0   0
 33      1     3       4   8   8
                       3   5   5
                       1   2   2
                       5  10  10
 34      1     8       4   4   4   4   4   4   4   4
                       0   0   0   0   0   0   0   0
                       2   2   2   2   2   2   2   2
                       0   0   0   0   0   0   0   0
 35      1     3       6   6   6
                      10  10  10
                       4   4   4
                       7   7   7
 36      1     3       0   0   0
                       0   0   0
                       5   3   5
                       0   0   0
 37      1     2       4   4
                       9   9
                       7   7
                       0   0
 38      1     7       9   9   9   9   9   9   9
                       3   3   3   3   3   3   3
                       9   9   9   9   9   9   9
                       6   6   6   6   6   6   6
 39      1     5       3   2   3   3   3
                       0   0   0   0   0
                       5   3   5   5   5
                       5   3   5   5   5
 40      1     2       5   5
                       9   9
                       0   0
                      10  10
 41      1     7       0   0   0   0   0   0   0
                       7   7   7   7   7   7   7
                       9   9   9   9   9   9   9
                       0   0   0   0   0   0   0
 42      1     5       4   4   4   4   4
                       3   3   3   3   3
                       5   5   5   5   5
                      10  10  10  10  10
 43      1     6       8   8   8   8   8   4
                      10  10  10  10  10   5
                       7   7   7   7   7   4
                       4   4   4   4   4   2
 44      1     6       0   0   0   0   0   0
                       7   7   7   4   4   7
                       0   0   0   0   0   0
                       5   5   5   3   3   5
 45      1     1       1
                       2
                       1
                       0
 46      1     8      10  10   5  10  10   5  10  10
                       0   0   0   0   0   0   0   0
                       0   0   0   0   0   0   0   0
                       6   6   3   6   6   3   6   6
 47      1     8       7   7   7   7   7   7   7   7
                       3   3   3   3   3   3   3   3
                       0   0   0   0   0   0   0   0
                       9   9   9   9   9   9   9   9
 48      1     1       0
                       3
                       6
                       9
 49      1     1       0
                       2
                       0
                       8
 50      1     1       3
                       8
                       1
                      10
 51      1     9       0   0   0   0   0   0   0   0   0
                       0   0   0   0   0   0   0   0   0
                      10  10  10  10  10  10   5  10  10
                       6   6   6   6   6   6   3   6   6
 52      1     2       7   7
                       1   1
                       4   4
                      10  10
 53      1     2       0   0
                       4   4
                       7   7
                       0   0
 54      1     8       8   8   8   8   8   8   8   8
                       2   2   2   2   2   2   2   2
                       0   0   0   0   0   0   0   0
                       0   0   0   0   0   0   0   0
 55      1     6      10  10   5  10  10   5
                       9   9   5   9   9   5
                       4   4   2   4   4   2
                       0   0   0   0   0   0
 56      1     5       7   7   7   7   7
                       0   0   0   0   0
                       1   1   1   1   1
                       0   0   0   0   0
 57      1     1       7
                       8
                       2
                       0
 58      1     2      10  10
                       5   5
                       5   5
                       7   7
 59      1     1       9
                       4
                       8
                       1
 60      1     1       0
                       8
                       3
                       0
 61      1     4       0   0   0   0
                       7   7   7   7
                       1   1   1   1
                       3   3   3   3
 62      1     1       2
                       0
                       0
                       5
 63      1     2       6   6
                      10  10
                       2   2
                       1   1
 64      1     7       0   0   0   0   0   0   0
                       4   4   4   2   4   4   4
                       4   4   4   2   4   4   4
                       1   1   1   1   1   1   1
 65      1     8      10  10  10  10  10  10  10  10
                       6   6   6   6   6   6   6   6
                       0   0   0   0   0   0   0   0
                       2   2   2   2   2   2   2   2
 66      1     6       3   3   3   3   3   3
                       0   0   0   0   0   0
                       0   0   0   0   0   0
                       0   0   0   0   0   0
 67      1     4       3   3   3   3
                       8   8   8   8
                       0   0   0   0
                       0   0   0   0
 68      1     2       9   9
                       7   7
                       8   8
                       6   6
 69      1     9       6   3   6   6   6   6   6   6   6
                       0   0   0   0   0   0   0   0   0
                       9   5   9   9   9   9   9   9   9
                       8   4   8   8   8   8   8   8   8
 70      1     5       4   4   4   4   4
                       2   2   2   2   2
                       5   5   5   5   5
                       5   5   5   5   5
 71      1     5       5  10  10  10  10
                       1   1   1   1   1
                       2   3   3   3   3
                       0   0   0   0   0
 72      1     6       0   0   0   0   0   0
                       5   5   5   5   3   5
                       0   0   0   0   0   0
                       0   0   0   0   0   0
 73      1    10       8   8   8   8   8   8   8   8   8   8
                       9   9   9   9   9   9   9   9   9   9
                       0   0   0   0   0   0   0   0   0   0
                       8   8   8   8   8   8   8   8   8   8
 74      1     1       3
                       9
                       3
                       2
 75      1     8       7   7   7   7   7   7   7   7
                       7   7   7   7   7   7   7   7
                       0   0   0   0   0   0   0   0
                       1   1   1   1   1   1   1   1
 76      1     8       3   3   3   3   3   3   3   3
                       2   2   2   2   2   2   2   2
                       4   4   4   4   4   4   4   4
                       7   7   7   7   7   7   7   7
 77      1     4       1   1   1   1
                       0   0   0   0
                       0   0   0   0
                       5   5   5   3
 78      1     7       0   0   0   0   0   0   0
                       2   4   4   4   4   4   4
                       2   4   4   4   4   4   4
                       4   7   7   7   7   7   7
 79      1     4       0   0   0   0
                       5   5   5   5
                       2   2   2   2
                       0   0   0   0
 80      1     7       8   8   8   8   8   4   8
                       0   0   0   0   0   0   0
                       4   4   4   4   4   2   4
                       3   3   3   3   3   2   3
 81      1     9       0   0   0   0   0   0   0   0   0
                      10  10  10  10  10  10  10  10  10
                       0   0   0   0   0   0   0   0   0
                       0   0   0   0   0   0   0   0   0
 82      1     2       3   3
                       9   9
                       0   0
                       0   0
 83      1     1       6
                       2
                       6
                       3
 84      1     9       4   4   4   4   4   4   4   4   4
                      10  10  10  10  10  10  10  10  10
                       4   4   4   4   4   4   4   4   4
                       0   0   0   0   0   0   0   0   0
 85      1     5       6   6   6   6   6
                       6   6   6   6   6
                       0   0   0   0   0
                       4   4   4   4   4
 86      1     6      10  10  10  10  10  10
                       0   0   0   0   0   0
                       1   1   1   1   1   1
                       3   3   3   3   3   3
 87      1     3       0   0   0
                       0   0   0
                       1   1   1
                       9   9   9
 88      1     6       9   9   9   9   9   9
                       4   4   4   4   4   4
                       8   8   8   8   8   8
                       4   4   4   4   4   4
 89      1     3       8   8   8
                       8   8   8
                       0   0   0
                       0   0   0
 90      1     4       6   6   3   6
                       5   5   3   5
                       8   8   4   8
                       2   2   1   2
 91      1     3       5   5   5
                       0   0   0
                       0   0   0
                       6   6   6
 92      1     8       6   6   6   6   6   6   6   3
                       0   0   0   0   0   0   0   0
                       1   1   1   1   1   1   1   1
                       6   6   6   6   6   6   6   3
 93      1     9      10  10  10  10   5  10  10  10  10
                       5   5   5   5   3   5   5   5   5
                       0   0   0   0   0   0   0   0   0
                      10  10  10  10   5  10  10  10  10
 94      1     2      10  10
                       7   7
                       0   0
                       8   8
 95      1     3       1   1   1
                       0   0   0
                       0   0   0
                       0   0   0
 96      1     4       6   6   6   6
                       4   4   4   4
                       0   0   0   0
                       5   5   5   5
 97      1     2       0   0
                       1   1
                      10   5
                      10   5
 98      1     7      10  10  10  10  10   5  10
                       5   5   5   5   5   3   5
                       2   2   2   2   2   1   2
                       6   6   6   6   6   3   6
 99      1     3       7   7   7
                       0   0   0
                      10  10  10
                       5   5   5
100      1     5       0   0   0   0   0
                       1   1   1   1   1
                       4   7   7   7   7
                       2   4   4   4   4
101      1     2       5   9
                       5  10
                       5   9
                       1   1
102      1     7       3   3   3   3   3   3   3
                       8   8   8   8   8   8   8
                       6   6   6   6   6   6   6
                       3   3   3   3   3   3   3
103      1    10       7   7   7   7   7   7   4   7   7   7
                       0   0   0   0   0   0   0   0   0   0
                       2   2   2   2   2   2   1   2   2   2
                       6   6   6   6   6   6   3   6   6   6
104      1     4       9   5   9   9
                       1   1   1   1
                      10   5  10  10
                      10   5  10  10
105      1    10       5   5   5   5   5   5   5   5   5   5
                       4   4   4   4   4   4   4   4   4   4
                       7   7   7   7   7   7   7   7   7   7
                       5   5   5   5   5   5   5   5   5   5
106      1    10       3   3   3   2   3   3   3   3   2   3
                       8   8   8   4   8   8   8   8   4   8
                       8   8   8   4   8   8   8   8   4   8
                       3   3   3   2   3   3   3   3   2   3
107      1     6       6   6   6   6   6   6
                       8   8   8   8   8   8
                       0   0   0   0   0   0
                       6   6   6   6   6   6
108      1     4       9   9   9   9
                       0   0   0   0
                       0   0   0   0
                       6   6   6   6
109      1     9       8   8   8   8   8   8   4   8   8
                       6   6   6   6   6   6   3   6   6
                       7   7   7   7   7   7   4   7   7
                       3   3   3   3   3   3   2   3   3
110      1    10       5   5   5   5   5   5   3   5   5   5
                       3   3   3   3   3   3   2   3   3   3
                       3   3   3   3   3   3   2   3   3   3
                       9   9   9   9   9   9   5   9   9   9
111      1     9       8   8   4   8   8   8   8   8   8
                       6   6   3   6   6   6   6   6   6
                       2   2   1   2   2   2   2   2   2
                       9   9   5   9   9   9   9   9   9
112      1     8       0   0   0   0   0   0   0   0
                       2   2   2   2   2   1   2   2
                       3   3   3   3   3   2   3   3
                       0   0   0   0   0   0   0   0
113      1     8       0   0   0   0   0   0   0   0
                      10  10  10  10  10  10  10  10
                       4   4   4   4   4   4   4   4
                       5   5   5   5   5   5   5   5
114      1     7       4   4   4   4   4   4   4
                       6   6   6   6   6   6   6
                       0   0   0   0   0   0   0
                       9   9   9   9   9   9   9
115      1     4       8   8   8   8
                       5   5   5   5
                       0   0   0   0
                      10  10  10  10
116      1    10       6   6   6   6   3   6   6   6   6   6
                       6   6   6   6   3   6   6   6   6   6
                       0   0   0   0   0   0   0   0   0   0
                       7   7   7   7   4   7   7   7   7   7
117      1     1       4
                       1
                       3
                       0
118      1     4       0   0   0   0
                       1   1   1   1
                       0   0   0   0
                       3   3   3   3
119      1     7       0   0   0   0   0   0   0
                       5   5   5   5   5   5   5
                       9   9   9   9   9   9   9
                       8   8   8   8   8   8   8
120      1     6       5   9   9   9   9   9
                       0   0   0   0   0   0
                       5   9   9   9   9   9
                       5  10  10  10  10  10
121      1     4       3   2   3   3
                      10   5  10  10
                       8   4   8   8
                       0   0   0   0
122      1     0    
************************************************************************
RESOURCEAVAILABILITIES:
  R 1  R 2  R 3  R 4

  15  29  29  29  29  29  29  15  15  29  29  29  29  29  29  29  29  29  29  29  15  29  29  29  29  29  15  29  29  29  29  29  15  29  29  29  29  15  29  29  29  29  29  29  29  29  29  29  29  29  29  29  29  29  29  29  15  29  29  15  15  29  29  29  29  29  15  15  29  29  29  29  29  29  15  29  15  29  29  29  29  29  15  29  29  29  29  29  29  29  29  29  29  29  29  29  29  15  15  29  29  29  29  29  29  29  15  15  15  29  29  15  29  29  29  29  29  29  29  29  29  29  29  29  29  29  29  29  29  29  15  29  29  29  15  29  29  29  15  29  29  29  29  29  29  29  29  29  29  29  15  29  29  29  15  29  15  29  29  29  29  29  29  29  29  29  15  29  29  29  29  29  29  29  29  29  29  29  29  29  29  15  29  29  29  29  29  15  29  29  29  29  29  29  29  29  29  15  29  29  29  29  29  29  15  29  29  29  15  29  29  29  29  29  29  29  29  29  15  29  29  29  29  29  29  29  29  29  29  29  15  29  29  29  29  29  29  29  29  29  29  29  29  29  29  29  29  29  15  29  29  29  15  29  29  29  29  29  29  29  29  29  29  29  29  29  29  29  29  29  29  29  29  29  29  29  15  29  29  29  29  29  29  29  29  29  29  29  29  29  29  29  29  29  29  29  29  29  29  29  29  29  29  29  29  29  29  29  29  15  29  29  29  29  29  29  29  29  29  29  29  15  29  29  29  29  15  29  15  29  15  29  29  15  29  29  15  29  29  29  29  29  29  29  29  29  29  29  29  29  29  29  29  29  29  29  29  29  29  29  29  29  29  29  29  29  29  29  29  29  29  29  29  15  29  29  29  29  29  29  29  29  29  29  29  29  29  29  29  29  29  29  15  29  29  29  29  15  29  29  29  29  15  29  29  29  29  29  29  29  29  29  29  29  29  15  29  15  29  15  29  29  29  29  29  29  29  29  29  29  29  29  29  29  15  29  29  29  29  29  29  29  15  29  29  29  29  29  29  15  29  29  29  29  29  29  29  29  29  29  29  15  29  29  29  29  29  29  29  29  29  29  29  29  29  29  29  15  29  29  29  29  29  29  29  29  29  29  29  15  29  29  29  29  29  29  29  29  29  29  29  29  29  29  29  29  15  15  29  29  29  29  29  29  29  29  29  15  29  15  29  29  15  29  29  15  29  29  29  29  29  29  15  29  29  15  29  29  29  29  29  29  29  29  29  29  29  29  29  29  29  29  29  29  29  29  29  29  29  29  29  29  29  15  29  29  29  29  29  29  29  29  29  29  29  15  29  29  29  29  29  29  29  29  29  29  29  29  29  29  29  29  29  29  29  29  29  29  15  29  29  29  29  29  29  29  29  29  29  29  29  29  29  29  29  15  29  29  29  29  29  15  29  29  29  29  29

  14  27  27  27  27  27  27  14  14  27  27  27  27  27  27  27  27  27  27  27  14  27  27  27  27  27  14  27  27  27  27  27  14  27  27  27  27  14  27  27  27  27  27  27  27  27  27  27  27  27  27  27  27  27  27  27  14  27  27  14  14  27  27  27  27  27  14  14  27  27  27  27  27  27  14  27  14  27  27  27  27  27  14  27  27  27  27  27  27  27  27  27  27  27  27  27  27  14  14  27  27  27  27  27  27  27  14  14  14  27  27  14  27  27  27  27  27  27  27  27  27  27  27  27  27  27  27  27  27  27  14  27  27  27  14  27  27  27  14  27  27  27  27  27  27  27  27  27  27  27  14  27  27  27  14  27  14  27  27  27  27  27  27  27  27  27  14  27  27  27  27  27  27  27  27  27  27  27  27  27  27  14  27  27  27  27  27  14  27  27  27  27  27  27  27  27  27  14  27  27  27  27  27  27  14  27  27  27  14  27  27  27  27  27  27  27  27  27  14  27  27  27  27  27  27  27  27  27  27  27  14  27  27  27  27  27  27  27  27  27  27  27  27  27  27  27  27  27  14  27  27  27  14  27  27  27  27  27  27  27  27  27  27  27  27  27  27  27  27  27  27  27  27  27  27  27  14  27  27  27  27  27  27  27  27  27  27  27  27  27  27  27  27  27  27  27  27  27  27  27  27  27  27  27  27  27  27  27  27  14  27  27  27  27  27  27  27  27  27  27  27  14  27  27  27  27  14  27  14  27  14  27  27  14  27  27  14  27  27  27  27  27  27  27  27  27  27  27  27  27  27  27  27  27  27  27  27  27  27  27  27  27  27  27  27  27  27  27  27  27  27  27  27  14  27  27  27  27  27  27  27  27  27  27  27  27  27  27  27  27  27  27  14  27  27  27  27  14  27  27  27  27  14  27  27  27  27  27  27  27  27  27  27  27  27  14  27  14  27  14  27  27  27  27  27  27  27  27  27  27  27  27  27  27  14  27  27  27  27  27  27  27  14  27  27  27  27  27  27  14  27  27  27  27  27  27  27  27  27  27  27  14  27  27  27  27  27  27  27  27  27  27  27  27  27  27  27  14  27  27  27  27  27  27  27  27  27  27  27  14  27  27  27  27  27  27  27  27  27  27  27  27  27  27  27  27  14  14  27  27  27  27  27  27  27  27  27  14  27  14  27  27  14  27  27  14  27  27  27  27  27  27  14  27  27  14  27  27  27  27  27  27  27  27  27  27  27  27  27  27  27  27  27  27  27  27  27  27  27  27  27  27  27  14  27  27  27  27  27  27  27  27  27  27  27  14  27  27  27  27  27  27  27  27  27  27  27  27  27  27  27  27  27  27  27  27  27  27  14  27  27  27  27  27  27  27  27  27  27  27  27  27  27  27  27  14  27  27  27  27  27  14  27  27  27  27  27

  12  23  23  23  23  23  23  12  12  23  23  23  23  23  23  23  23  23  23  23  12  23  23  23  23  23  12  23  23  23  23  23  12  23  23  23  23  12  23  23  23  23  23  23  23  23  23  23  23  23  23  23  23  23  23  23  12  23  23  12  12  23  23  23  23  23  12  12  23  23  23  23  23  23  12  23  12  23  23  23  23  23  12  23  23  23  23  23  23  23  23  23  23  23  23  23  23  12  12  23  23  23  23  23  23  23  12  12  12  23  23  12  23  23  23  23  23  23  23  23  23  23  23  23  23  23  23  23  23  23  12  23  23  23  12  23  23  23  12  23  23  23  23  23  23  23  23  23  23  23  12  23  23  23  12  23  12  23  23  23  23  23  23  23  23  23  12  23  23  23  23  23  23  23  23  23  23  23  23  23  23  12  23  23  23  23  23  12  23  23  23  23  23  23  23  23  23  12  23  23  23  23  23  23  12  23  23  23  12  23  23  23  23  23  23  23  23  23  12  23  23  23  23  23  23  23  23  23  23  23  12  23  23  23  23  23  23  23  23  23  23  23  23  23  23  23  23  23  12  23  23  23  12  23  23  23  23  23  23  23  23  23  23  23  23  23  23  23  23  23  23  23  23  23  23  23  12  23  23  23  23  23  23  23  23  23  23  23  23  23  23  23  23  23  23  23  23  23  23  23  23  23  23  23  23  23  23  23  23  12  23  23  23  23  23  23  23  23  23  23  23  12  23  23  23  23  12  23  12  23  12  23  23  12  23  23  12  23  23  23  23  23  23  23  23  23  23  23  23  23  23  23  23  23  23  23  23  23  23  23  23  23  23  23  23  23  23  23  23  23  23  23  23  12  23  23  23  23  23  23  23  23  23  23  23  23  23  23  23  23  23  23  12  23  23  23  23  12  23  23  23  23  12  23  23  23  23  23  23  23  23  23  23  23  23  12  23  12  23  12  23  23  23  23  23  23  23  23  23  23  23  23  23  23  12  23  23  23  23  23  23  23  12  23  23  23  23  23  23  12  23  23  23  23  23  23  23  23  23  23  23  12  23  23  23  23  23  23  23  23  23  23  23  23  23  23  23  12  23  23  23  23  23  23  23  23  23  23  23  12  23  23  23  23  23  23  23  23  23  23  23  23  23  23  23  23  12  12  23  23  23  23  23  23  23  23  23  12  23  12  23  23  12  23  23  12  23  23  23  23  23  23  12  23  23  12  23  23  23  23  23  23  23  23  23  23  23  23  23  23  23  23  23  23  23  23  23  23  23  23  23  23  23  12  23  23  23  23  23  23  23  23  23  23  23  12  23  23  23  23  23  23  23  23  23  23  23  23  23  23  23  23  23  23  23  23  23  23  12  23  23  23  23  23  23  23  23  23  23  23  23  23  23  23  23  12  23  23  23  23  23  12  23  23  23  23  23

  16  31  31  31  31  31  31  16  16  31  31  31  31  31  31  31  31  31  31  31  16  31  31  31  31  31  16  31  31  31  31  31  16  31  31  31  31  16  31  31  31  31  31  31  31  31  31  31  31  31  31  31  31  31  31  31  16  31  31  16  16  31  31  31  31  31  16  16  31  31  31  31  31  31  16  31  16  31  31  31  31  31  16  31  31  31  31  31  31  31  31  31  31  31  31  31  31  16  16  31  31  31  31  31  31  31  16  16  16  31  31  16  31  31  31  31  31  31  31  31  31  31  31  31  31  31  31  31  31  31  16  31  31  31  16  31  31  31  16  31  31  31  31  31  31  31  31  31  31  31  16  31  31  31  16  31  16  31  31  31  31  31  31  31  31  31  16  31  31  31  31  31  31  31  31  31  31  31  31  31  31  16  31  31  31  31  31  16  31  31  31  31  31  31  31  31  31  16  31  31  31  31  31  31  16  31  31  31  16  31  31  31  31  31  31  31  31  31  16  31  31  31  31  31  31  31  31  31  31  31  16  31  31  31  31  31  31  31  31  31  31  31  31  31  31  31  31  31  16  31  31  31  16  31  31  31  31  31  31  31  31  31  31  31  31  31  31  31  31  31  31  31  31  31  31  31  16  31  31  31  31  31  31  31  31  31  31  31  31  31  31  31  31  31  31  31  31  31  31  31  31  31  31  31  31  31  31  31  31  16  31  31  31  31  31  31  31  31  31  31  31  16  31  31  31  31  16  31  16  31  16  31  31  16  31  31  16  31  31  31  31  31  31  31  31  31  31  31  31  31  31  31  31  31  31  31  31  31  31  31  31  31  31  31  31  31  31  31  31  31  31  31  31  16  31  31  31  31  31  31  31  31  31  31  31  31  31  31  31  31  31  31  16  31  31  31  31  16  31  31  31  31  16  31  31  31  31  31  31  31  31  31  31  31  31  16  31  16  31  16  31  31  31  31  31  31  31  31  31  31  31  31  31  31  16  31  31  31  31  31  31  31  16  31  31  31  31  31  31  16  31  31  31  31  31  31  31  31  31  31  31  16  31  31  31  31  31  31  31  31  31  31  31  31  31  31  31  16  31  31  31  31  31  31  31  31  31  31  31  16  31  31  31  31  31  31  31  31  31  31  31  31  31  31  31  31  16  16  31  31  31  31  31  31  31  31  31  16  31  16  31  31  16  31  31  16  31  31  31  31  31  31  16  31  31  16  31  31  31  31  31  31  31  31  31  31  31  31  31  31  31  31  31  31  31  31  31  31  31  31  31  31  31  16  31  31  31  31  31  31  31  31  31  31  31  16  31  31  31  31  31  31  31  31  31  31  31  31  31  31  31  31  31  31  31  31  31  31  16  31  31  31  31  31  31  31  31  31  31  31  31  31  31  31  31  16  31  31  31  31  31  16  31  31  31  31  31

************************************************************************
